30
0   152   155
1   151   153
2   151   154
3   154   154
4   156   154
5   152   151
6   154   151
7   154   154
8   155   151
9   156   154
10   78   81
11   77   80
12   76   78
13   76   76
14   76   81
15   80   76
16   79   81
17   77   79
18   81   76
19   80   77
20   4   4
21   5   2
22   3   2
23   6   2
24   4   3
25   1   4
26   5   6
27   1   2
28   6   6
29   3   1
300
